45
1 0 3
2 0 4
2 1 1
3 0 1
4 0 5
4 3 3
5 1 5
5 4 5
6 0 5
6 2 1
7 0 4
7 1 4
7 3 3
8 0 1
8 4 1
8 6 3
9 0 2
9 1 3
9 2 4
9 3 1
9 4 5
10 1 4
10 3 1
10 6 4
10 8 5
10 9 1
11 0 5
11 2 3
11 3 1
11 4 3
11 6 5
11 7 4
11 8 1
11 10 3
12 0 3
12 3 5
12 4 5
12 7 2
12 9 4
12 10 5
13 1 1
13 3 2
13 8 4
14 2 2
14 4 5
14 6 2
14 7 2
14 10 2
14 13 1
15 1 2
15 2 5
15 4 1
15 6 2
15 7 4
15 10 2
15 11 3
15 12 2
15 13 5
16 2 4
16 3 3
16 7 4
16 8 5
16 10 1
16 12 2
16 14 1
16 15 4
17 2 1
17 3 5
17 5 1
17 6 1
17 7 5
17 9 2
17 10 1
17 11 1
17 12 1
17 13 3
17 14 2
17 16 1
18 2 3
18 3 5
18 5 3
18 8 2
18 11 3
18 12 2
18 17 2
19 1 2
19 3 4
19 4 3
19 5 1
19 7 1
19 8 4
19 10 2
19 11 3
19 16 5
19 17 2
19 18 4
20 5 2
20 6 3
20 7 3
20 8 2
20 10 3
20 12 5
20 13 1
20 15 1
21 6 4
21 7 2
21 8 5
21 9 3
21 10 5
21 14 2
21 17 3
22 3 4
22 6 1
22 7 5
22 8 3
22 9 5
22 12 4
22 13 3
22 15 2
22 18 1
22 21 1
23 0 4
23 2 4
23 3 2
23 7 2
23 8 4
23 9 1
23 10 2
23 11 1
23 12 4
23 14 1
23 15 2
23 18 5
23 20 2
23 22 5
24 0 1
24 2 1
24 3 1
24 5 3
24 8 4
24 10 3
24 11 4
24 12 3
24 14 1
24 15 2
24 17 2
24 18 2
24 21 4
24 23 1
25 1 1
25 2 3
25 4 4
25 9 3
25 10 4
25 11 2
25 12 5
25 13 2
25 14 2
25 17 2
25 18 5
25 19 4
25 21 2
25 23 1
25 24 2
26 1 3
26 4 5
26 5 4
26 6 2
26 7 4
26 8 2
26 9 3
26 10 1
26 11 5
26 15 1
26 17 2
26 20 5
26 21 2
26 22 3
26 23 4
26 25 2
27 0 2
27 1 3
27 2 5
27 3 1
27 9 1
27 11 3
27 14 2
27 15 5
27 18 4
27 23 1
27 25 3
28 1 3
28 2 4
28 3 1
28 5 3
28 10 3
28 12 1
28 14 2
28 16 2
28 19 3
28 20 4
28 21 2
28 22 1
28 23 4
29 1 5
29 2 1
29 3 5
29 4 3
29 7 1
29 12 2
29 14 1
29 15 1
29 16 1
29 17 3
29 20 3
29 22 4
29 26 4
30 0 3
30 2 2
30 3 1
30 4 3
30 5 4
30 7 4
30 9 3
30 11 2
30 12 2
30 13 3
30 15 5
30 16 5
30 18 4
30 21 2
30 22 1
30 23 5
30 25 2
30 26 5
30 29 3
31 0 2
31 1 4
31 6 4
31 7 5
31 12 3
31 16 1
31 20 3
31 21 2
31 25 4
31 30 5
32 3 4
32 5 1
32 7 4
32 10 1
32 15 1
32 17 3
32 19 5
32 20 1
32 23 2
32 25 1
32 26 1
32 27 5
32 31 4
33 0 4
33 1 4
33 2 2
33 5 3
33 6 3
33 7 2
33 9 1
33 12 4
33 14 3
33 19 5
33 20 3
33 21 2
33 22 1
33 23 4
33 29 3
33 32 2
34 1 5
34 2 2
34 3 3
34 4 2
34 5 3
34 7 1
34 8 5
34 9 1
34 10 5
34 11 2
34 12 5
34 14 3
34 16 2
34 22 3
34 23 2
34 24 2
34 25 5
34 26 2
34 28 3
34 29 4
34 32 4
35 1 3
35 2 2
35 6 1
35 7 3
35 10 1
35 11 1
35 13 3
35 14 5
35 18 2
35 20 2
35 21 4
35 24 1
35 25 3
35 27 1
35 28 2
35 30 4
35 31 1
36 2 4
36 4 5
36 7 2
36 8 2
36 14 4
36 19 3
36 26 1
36 27 4
36 28 5
36 29 2
36 32 1
36 34 3
37 1 2
37 2 2
37 3 1
37 4 4
37 6 4
37 7 2
37 8 3
37 10 4
37 12 1
37 13 4
37 14 1
37 15 4
37 16 2
37 19 2
37 22 1
37 23 1
37 24 3
37 26 3
37 33 2
37 36 4
38 0 4
38 4 5
38 7 2
38 9 3
38 10 4
38 12 1
38 13 1
38 15 3
38 17 4
38 19 3
38 23 2
38 24 1
38 25 5
38 26 3
38 29 2
38 31 3
38 33 4
38 34 1
38 35 3
38 37 5
39 0 5
39 2 4
39 3 1
39 4 4
39 9 4
39 10 3
39 11 1
39 13 1
39 14 2
39 18 3
39 20 5
39 22 2
39 23 2
39 24 5
39 28 2
39 31 3
39 32 2
39 35 3
39 37 4
40 0 2
40 1 5
40 2 1
40 5 5
40 9 3
40 10 1
40 12 1
40 13 4
40 17 4
40 25 4
40 28 4
40 29 1
40 30 1
40 31 1
40 35 1
40 38 5
40 39 5
41 0 4
41 1 1
41 2 3
41 3 2
41 4 5
41 5 1
41 8 5
41 11 2
41 12 2
41 13 2
41 14 2
41 15 5
41 16 2
41 17 3
41 19 5
41 20 4
41 21 4
41 26 1
41 27 1
41 28 1
41 31 1
41 32 1
41 33 4
41 35 3
42 5 3
42 7 2
42 9 1
42 12 2
42 15 5
42 16 5
42 17 3
42 19 2
42 21 1
42 22 5
42 23 3
42 25 1
42 26 4
42 29 3
42 31 4
42 32 3
42 33 4
42 34 5
42 38 4
42 39 3
43 1 5
43 2 1
43 4 1
43 5 1
43 7 3
43 8 3
43 11 3
43 13 2
43 15 5
43 16 2
43 19 2
43 20 5
43 26 2
43 27 1
43 34 3
43 35 2
43 37 2
43 40 5
43 42 1
44 1 2
44 3 5
44 6 1
44 7 5
44 8 3
44 9 1
44 11 5
44 12 4
44 16 4
44 23 4
44 25 4
44 27 5
44 29 2
44 30 3
44 37 2
44 39 5
44 40 3
44 41 4
44 42 3
44 43 3
